rcpsp/heur_output_bi_constraints/Log=5/heurj120.txt
encoding rcpsp/j120.sm/j12017_3.sm nv: 6670350 nc: 13514660 enctime: 106.98
encoding rcpsp/j120.sm/j12017_3.sm nv: 1377810 nc: 2788252 enctime: 16.96
c File: j12017_3.smnaivebi5.wcnf
c timeout
c final solution cost: 132
c CPU time: 73.183668
s UNKNOWN

c File: j12017_3.smbi5.wcnf
c timeout
c final solution cost: 117
c CPU time: 62.201407
s UNKNOWN


rcpsp/heur_output_bi_constraints/Log=5/heurj120.txt
encoding rcpsp/j120.sm/j12017_4.sm nv: 7375148 nc: 14993607 enctime: 123.63
encoding rcpsp/j120.sm/j12017_4.sm nv: 1568030 nc: 3183903 enctime: 19.44
c File: j12017_4.smnaivebi5.wcnf
c timeout
c final solution cost: 150
c CPU time: 75.322964
s UNKNOWN

c File: j12017_4.smbi5.wcnf
c timeout
c final solution cost: 126
c CPU time: 62.433519
s UNKNOWN


rcpsp/heur_output_bi_constraints/Log=5/heurj120.txt
encoding rcpsp/j120.sm/j12017_5.sm nv: 6133560 nc: 12487817 enctime: 100.53
encoding rcpsp/j120.sm/j12017_5.sm nv: 1478880 nc: 3007589 enctime: 20.50
c File: j12017_5.smnaivebi5.wcnf
c timeout
c final solution cost: 144
c CPU time: 73.091958
s UNKNOWN

c File: j12017_5.smbi5.wcnf
c timeout
c final solution cost: 139
c CPU time: 62.424419
s UNKNOWN


rcpsp/heur_output_bi_constraints/Log=5/heurj120.txt
encoding rcpsp/j120.sm/j12017_6.sm nv: 5769162 nc: 11746524 enctime: 98.19
encoding rcpsp/j120.sm/j12017_6.sm nv: 1494696 nc: 3040008 enctime: 21.04
c File: j12017_6.smnaivebi5.wcnf
c timeout
c final solution cost: 148
c CPU time: 72.511946
s UNKNOWN

c File: j12017_6.smbi5.wcnf
c timeout
c final solution cost: 147
c CPU time: 62.488565
s UNKNOWN


rcpsp/heur_output_bi_constraints/Log=5/heurj120.txt
encoding rcpsp/j120.sm/j12017_7.sm nv: 6116320 nc: 12495946 enctime: 107.73
encoding rcpsp/j120.sm/j12017_7.sm nv: 1555750 nc: 3174736 enctime: 21.80
c File: j12017_7.smnaivebi5.wcnf
c timeout
c final solution cost: 197
c CPU time: 73.599084
s UNKNOWN

c File: j12017_7.smbi5.wcnf
c timeout
c final solution cost: 161
c CPU time: 62.603826
s UNKNOWN


rcpsp/heur_output_bi_constraints/Log=5/heurj120.txt
encoding rcpsp/j120.sm/j12017_8.sm nv: 6054645 nc: 12314422 enctime: 101.21
encoding rcpsp/j120.sm/j12017_8.sm nv: 1425185 nc: 2895298 enctime: 20.17
c File: j12017_8.smnaivebi5.wcnf
c timeout
c final solution cost: 142
c CPU time: 72.876947
s UNKNOWN

c File: j12017_8.smbi5.wcnf
c timeout
c final solution cost: 133
c CPU time: 62.302939
s UNKNOWN


rcpsp/heur_output_bi_constraints/Log=5/heurj120.txt
encoding rcpsp/j120.sm/j12017_9.sm nv: 5677470 nc: 11567366 enctime: 98.52
encoding rcpsp/j120.sm/j12017_9.sm nv: 1504440 nc: 3061934 enctime: 18.60
c File: j12017_9.smnaivebi5.wcnf
c timeout
c final solution cost: 378
c CPU time: 72.456206
s UNKNOWN

c File: j12017_9.smbi5.wcnf
c timeout
c final solution cost: 151
c CPU time: 62.541457
s UNKNOWN


rcpsp/heur_output_bi_constraints/Log=5/heurj120.txt
encoding rcpsp/j120.sm/j1201_7.sm nv: 638608 nc: 1572822 enctime: 29.91
encoding rcpsp/j120.sm/j1201_7.sm nv: 123324 nc: 299704 enctime: 1.62
c File: j1201_7.smnaivebi5.wcnf
c timeout
c final solution cost: 143
c CPU time: 65.852539
s UNKNOWN

c File: j1201_7.smbi5.wcnf
c timeout
c final solution cost: 103
c CPU time: 60.336871
s UNKNOWN


rcpsp/heur_output_bi_constraints/Log=5/heurj120.txt
encoding rcpsp/j120.sm/j12018_10.sm nv: 9594120 nc: 19396939 enctime: 155.74
encoding rcpsp/j120.sm/j12018_10.sm nv: 1566099 nc: 3162231 enctime: 20.55
c File: j12018_10.smnaivebi5.wcnf
c timeout
c final solution cost: 105
c CPU time: 78.448756
s UNKNOWN

c File: j12018_10.smbi5.wcnf
c timeout
c final solution cost: 95
c CPU time: 62.345036
s UNKNOWN


rcpsp/heur_output_bi_constraints/Log=5/heurj120.txt
encoding rcpsp/j120.sm/j12018_1.sm nv: 7694844 nc: 15668246 enctime: 133.02
encoding rcpsp/j120.sm/j12018_1.sm nv: 1695656 nc: 3448506 enctime: 21.48
c File: j12018_1.smnaivebi5.wcnf
c timeout
c final solution cost: 153
c CPU time: 76.220438
s UNKNOWN

c File: j12018_1.smbi5.wcnf
c timeout
c final solution cost: 144
c CPU time: 62.756656
s UNKNOWN


rcpsp/heur_output_bi_constraints/Log=5/heurj120.txt
encoding rcpsp/j120.sm/j12018_2.sm nv: 7958639 nc: 16161712 enctime: 134.03
encoding rcpsp/j120.sm/j12018_2.sm nv: 1536283 nc: 3115728 enctime: 19.93
c File: j12018_2.smnaivebi5.wcnf
c timeout
c final solution cost: 142
c CPU time: 75.991365
s UNKNOWN

c File: j12018_2.smbi5.wcnf
c timeout
c final solution cost: 121
c CPU time: 62.391329
s UNKNOWN


rcpsp/heur_output_bi_constraints/Log=5/heurj120.txt
encoding rcpsp/j120.sm/j12018_3.sm nv: 8932440 nc: 18064204 enctime: 145.28
encoding rcpsp/j120.sm/j12018_3.sm nv: 1475206 nc: 2979477 enctime: 19.68
c File: j12018_3.smnaivebi5.wcnf
c timeout
c final solution cost: 108
c CPU time: 77.479576
s UNKNOWN

c File: j12018_3.smbi5.wcnf
c timeout
c CPU time: 61.891479
s UNKNOWN


rcpsp/heur_output_bi_constraints/Log=5/heurj120.txt
encoding rcpsp/j120.sm/j12018_4.sm nv: 8444052 nc: 17086980 enctime: 136.96
encoding rcpsp/j120.sm/j12018_4.sm nv: 1463463 nc: 2957634 enctime: 22.50
c File: j12018_4.smnaivebi5.wcnf
c timeout
c final solution cost: 105
c CPU time: 76.612640
s UNKNOWN

c File: j12018_4.smbi5.wcnf
c timeout
c final solution cost: 103
c CPU time: 62.257358
s UNKNOWN


rcpsp/heur_output_bi_constraints/Log=5/heurj120.txt
encoding rcpsp/j120.sm/j12018_5.sm nv: 8293802 nc: 16817979 enctime: 137.47
encoding rcpsp/j120.sm/j12018_5.sm nv: 1568769 nc: 3177128 enctime: 19.84
c File: j12018_5.smnaivebi5.wcnf
c timeout
c final solution cost: 125
c CPU time: 76.089214
s UNKNOWN

c File: j12018_5.smbi5.wcnf
c timeout
c CPU time: 62.035505
s UNKNOWN


rcpsp/heur_output_bi_constraints/Log=5/heurj120.txt
encoding rcpsp/j120.sm/j12018_6.sm nv: 6200385 nc: 12618135 enctime: 107.68
encoding rcpsp/j120.sm/j12018_6.sm nv: 1413111 nc: 2872275 enctime: 17.74
c File: j12018_6.smnaivebi5.wcnf
c timeout
c final solution cost: 150
c CPU time: 73.310352
s UNKNOWN

c File: j12018_6.smbi5.wcnf
c timeout
c CPU time: 61.915436
s UNKNOWN


rcpsp/heur_output_bi_constraints/Log=5/heurj120.txt
encoding rcpsp/j120.sm/j12018_7.sm nv: 6881838 nc: 13971646 enctime: 116.05
encoding rcpsp/j120.sm/j12018_7.sm nv: 1374237 nc: 2786351 enctime: 17.51
c File: j12018_7.smnaivebi5.wcnf
c timeout
c final solution cost: 535
c CPU time: 74.007068
s UNKNOWN

c File: j12018_7.smbi5.wcnf
c timeout
c final solution cost: 124
c CPU time: 62.243326
s UNKNOWN


rcpsp/heur_output_bi_constraints/Log=5/heurj120.txt
encoding rcpsp/j120.sm/j12018_8.sm nv: 7588440 nc: 15371353 enctime: 125.72
encoding rcpsp/j120.sm/j12018_8.sm nv: 1418400 nc: 2869453 enctime: 17.53
c File: j12018_8.smnaivebi5.wcnf
c timeout
c final solution cost: 115
c CPU time: 74.581003
s UNKNOWN

c File: j12018_8.smbi5.wcnf
c timeout
c final solution cost: 110
c CPU time: 62.162460
s UNKNOWN


rcpsp/heur_output_bi_constraints/Log=5/heurj120.txt
encoding rcpsp/j120.sm/j12018_9.sm nv: 9752106 nc: 19708352 enctime: 150.58
encoding rcpsp/j120.sm/j12018_9.sm nv: 1533714 nc: 3095488 enctime: 19.28
c File: j12018_9.smnaivebi5.wcnf
c timeout
c final solution cost: 165
c CPU time: 78.347293
s UNKNOWN

c File: j12018_9.smbi5.wcnf
c timeout
c final solution cost: 94
c CPU time: 62.262689
s UNKNOWN


rcpsp/heur_output_bi_constraints/Log=5/heurj120.txt
encoding rcpsp/j120.sm/j1201_8.sm nv: 578124 nc: 1413947 enctime: 24.65
encoding rcpsp/j120.sm/j1201_8.sm nv: 124533 nc: 301177 enctime: 2.32
c File: j1201_8.smnaivebi5.wcnf
c timeout
c final solution cost: 104
c CPU time: 65.471871
s UNKNOWN

c File: j1201_8.smbi5.wcnf
c timeout
c final solution cost: 104
c CPU time: 60.351268
s UNKNOWN


rcpsp/heur_output_bi_constraints/Log=5/heurj120.txt
encoding rcpsp/j120.sm/j12019_10.sm nv: 11872368 nc: 23947719 enctime: 174.76
encoding rcpsp/j120.sm/j12019_10.sm nv: 1569336 nc: 3161059 enctime: 15.70
c File: j12019_10.smnaivebi5.wcnf
c optimal
c final solution cost: 85
c CPU time: 77.320659
s OPTIMUM FOUND

c File: j12019_10.smbi5.wcnf
c optimal
c final solution cost: 85
c CPU time: 6.756153
s OPTIMUM FOUND


rcpsp/heur_output_bi_constraints/Log=5/heurj120.txt
encoding rcpsp/j120.sm/j12019_1.sm nv: 10965642 nc: 22066567 enctime: 154.99
encoding rcpsp/j120.sm/j12019_1.sm nv: 1559013 nc: 3133558 enctime: 19.01
c File: j12019_1.smnaivebi5.wcnf
c optimal
c final solution cost: 79
c CPU time: 31.651730
s OPTIMUM FOUND

c File: j12019_1.smbi5.wcnf
c optimal
c final solution cost: 79
c CPU time: 4.382476
s OPTIMUM FOUND


rcpsp/heur_output_bi_constraints/Log=5/heurj120.txt
encoding rcpsp/j120.sm/j12019_2.sm nv: 11988750 nc: 24172613 enctime: 175.96
encoding rcpsp/j120.sm/j12019_2.sm nv: 1563750 nc: 3148613 enctime: 15.49
c File: j12019_2.smnaivebi5.wcnf
c timeout
c final solution cost: 100
c CPU time: 80.765635
s UNKNOWN

c File: j12019_2.smbi5.wcnf
c timeout
c final solution cost: 81
c CPU time: 62.207449
s UNKNOWN


rcpsp/heur_output_bi_constraints/Log=5/heurj120.txt
encoding rcpsp/j120.sm/j12019_3.sm nv: 9590001 nc: 19344080 enctime: 140.11
encoding rcpsp/j120.sm/j12019_3.sm nv: 1391373 nc: 2802700 enctime: 16.85
c File: j12019_3.smnaivebi5.wcnf
c timeout
c final solution cost: 87
c CPU time: 77.211910
s UNKNOWN

c File: j12019_3.smbi5.wcnf
c timeout
c final solution cost: 86
c CPU time: 61.995099
s UNKNOWN


rcpsp/heur_output_bi_constraints/Log=5/heurj120.txt
encoding rcpsp/j120.sm/j12019_4.sm nv: 8154685 nc: 16508012 enctime: 121.27
encoding rcpsp/j120.sm/j12019_4.sm nv: 1583190 nc: 3201323 enctime: 18.64
c File: j12019_4.smnaivebi5.wcnf
c timeout
c final solution cost: 112
c CPU time: 75.078729
s UNKNOWN

c File: j12019_4.smbi5.wcnf
c timeout
c final solution cost: 108
c CPU time: 62.327804
s UNKNOWN


rcpsp/heur_output_bi_constraints/Log=5/heurj120.txt
encoding rcpsp/j120.sm/j12019_5.sm nv: 8433762 nc: 17086565 enctime: 127.47
encoding rcpsp/j120.sm/j12019_5.sm nv: 1526586 nc: 3088949 enctime: 18.28
c File: j12019_5.smnaivebi5.wcnf
c timeout
c final solution cost: 113
c CPU time: 76.415088
s UNKNOWN

c File: j12019_5.smbi5.wcnf
c timeout
c final solution cost: 109
c CPU time: 62.208035
s UNKNOWN


rcpsp/heur_output_bi_constraints/Log=5/heurj120.txt
encoding rcpsp/j120.sm/j12019_6.sm nv: 10591038 nc: 21380590 enctime: 156.01
encoding rcpsp/j120.sm/j12019_6.sm nv: 1483995 nc: 2991604 enctime: 18.53
c File: j12019_6.smnaivebi5.wcnf
c timeout
c final solution cost: 96
c CPU time: 79.073867
s UNKNOWN

c File: j12019_6.smbi5.wcnf
c timeout
c final solution cost: 90
c CPU time: 62.140510
s UNKNOWN


rcpsp/heur_output_bi_constraints/Log=5/heurj120.txt
encoding rcpsp/j120.sm/j12019_7.sm nv: 10658250 nc: 21508838 enctime: 156.13
encoding rcpsp/j120.sm/j12019_7.sm nv: 1547420 nc: 3118694 enctime: 19.40
c File: j12019_7.smnaivebi5.wcnf
c timeout
c final solution cost: 96
c CPU time: 79.171320
s UNKNOWN

c File: j12019_7.smbi5.wcnf
c timeout
c final solution cost: 85
c CPU time: 62.195287
s UNKNOWN


rcpsp/heur_output_bi_constraints/Log=5/heurj120.txt
encoding rcpsp/j120.sm/j12019_8.sm nv: 10305400 nc: 20818057 enctime: 153.87
encoding rcpsp/j120.sm/j12019_8.sm nv: 1576120 nc: 3179785 enctime: 19.60
c File: j12019_8.smnaivebi5.wcnf
c timeout
c final solution cost: 136
c CPU time: 79.030528
s UNKNOWN

c File: j12019_8.smbi5.wcnf
c timeout
c final solution cost: 90
c CPU time: 62.253671
s UNKNOWN


rcpsp/heur_output_bi_constraints/Log=5/heurj120.txt
encoding rcpsp/j120.sm/j12019_9.sm nv: 9436025 nc: 19041120 enctime: 138.24
encoding rcpsp/j120.sm/j12019_9.sm nv: 1423475 nc: 2868600 enctime: 17.35
c File: j12019_9.smnaivebi5.wcnf
c timeout
c final solution cost: 91
c CPU time: 77.143562
s UNKNOWN

c File: j12019_9.smbi5.wcnf
c timeout
c final solution cost: 90
c CPU time: 62.073772
s UNKNOWN


rcpsp/heur_output_bi_constraints/Log=5/heurj120.txt
encoding rcpsp/j120.sm/j1201_9.sm nv: 629726 nc: 1569370 enctime: 27.98
encoding rcpsp/j120.sm/j1201_9.sm nv: 130924 nc: 322365 enctime: 2.46
c File: j1201_9.smnaivebi5.wcnf
c optimal
c final solution cost: 102
c CPU time: 23.293264
s OPTIMUM FOUND

c File: j1201_9.smbi5.wcnf
c optimal
c final solution cost: 102
c CPU time: 3.267949
s OPTIMUM FOUND


rcpsp/heur_output_bi_constraints/Log=5/heurj120.txt
encoding rcpsp/j120.sm/j12020_10.sm nv: 13285166 nc: 26744987 enctime: 188.76
encoding rcpsp/j120.sm/j12020_10.sm nv: 1595758 nc: 3208091 enctime: 19.53
c File: j12020_10.smnaivebi5.wcnf
c timeout
c final solution cost: 84
c CPU time: 81.959902
s UNKNOWN

c File: j12020_10.smbi5.wcnf
c timeout
c final solution cost: 73
c CPU time: 62.195890
s UNKNOWN


rcpsp/heur_output_bi_constraints/Log=5/heurj120.txt
encoding rcpsp/j120.sm/j12020_1.sm nv: 10756326 nc: 21685034 enctime: 151.15
encoding rcpsp/j120.sm/j12020_1.sm nv: 1602006 nc: 3225754 enctime: 18.83
c File: j12020_1.smnaivebi5.wcnf
c timeout
c final solution cost: 115
c CPU time: 78.660463
s UNKNOWN

c File: j12020_1.smbi5.wcnf
c timeout
c final solution cost: 80
c CPU time: 62.219227
s UNKNOWN


rcpsp/heur_output_bi_constraints/Log=5/heurj120.txt
encoding rcpsp/j120.sm/j12020_2.sm nv: 10539540 nc: 21255150 enctime: 144.90
encoding rcpsp/j120.sm/j12020_2.sm nv: 1501086 nc: 3023158 enctime: 17.55
c File: j12020_2.smnaivebi5.wcnf
c timeout
c final solution cost: 434
c CPU time: 78.519043
s UNKNOWN

c File: j12020_2.smbi5.wcnf
c timeout
c final solution cost: 83
c CPU time: 62.036169
s UNKNOWN


rcpsp/heur_output_bi_constraints/Log=5/heurj120.txt
encoding rcpsp/j120.sm/j12020_3.sm nv: 13290312 nc: 26790429 enctime: 180.64
encoding rcpsp/j120.sm/j12020_3.sm nv: 1501416 nc: 3021837 enctime: 18.34
c File: j12020_3.smnaivebi5.wcnf
c timeout
c final solution cost: 86
c CPU time: 82.409412
s UNKNOWN

c File: j12020_3.smbi5.wcnf
c timeout
c final solution cost: 78
c CPU time: 62.063784
s UNKNOWN


rcpsp/heur_output_bi_constraints/Log=5/heurj120.txt
encoding rcpsp/j120.sm/j12020_4.sm nv: 11445696 nc: 23032379 enctime: 155.44
encoding rcpsp/j120.sm/j12020_4.sm nv: 1392768 nc: 2798722 enctime: 12.98
c File: j12020_4.smnaivebi5.wcnf
c timeout
c final solution cost: 574
c CPU time: 78.982757
s UNKNOWN

c File: j12020_4.smbi5.wcnf
c optimal
c final solution cost: 77
c CPU time: 2.556528
s OPTIMUM FOUND


rcpsp/heur_output_bi_constraints/Log=5/heurj120.txt
encoding rcpsp/j120.sm/j12020_5.sm nv: 12602646 nc: 25305584 enctime: 163.84
encoding rcpsp/j120.sm/j12020_5.sm nv: 1510662 nc: 3029960 enctime: 18.08
c File: j12020_5.smnaivebi5.wcnf
c optimal
c final solution cost: 69
c CPU time: 30.385181
s OPTIMUM FOUND

c File: j12020_5.smbi5.wcnf
c optimal
c final solution cost: 69
c CPU time: 3.531484
s OPTIMUM FOUND


rcpsp/heur_output_bi_constraints/Log=5/heurj120.txt
encoding rcpsp/j120.sm/j12020_6.sm nv: 11676126 nc: 23444423 enctime: 153.93
encoding rcpsp/j120.sm/j12020_6.sm nv: 1662430 nc: 3334599 enctime: 19.44
c File: j12020_6.smnaivebi5.wcnf
c optimal
c final solution cost: 77
c CPU time: 29.808334
s OPTIMUM FOUND

c File: j12020_6.smbi5.wcnf
c optimal
c final solution cost: 77
c CPU time: 3.861916
s OPTIMUM FOUND


rcpsp/heur_output_bi_constraints/Log=5/heurj120.txt
encoding rcpsp/j120.sm/j12020_7.sm nv: 11280967 nc: 22668680 enctime: 149.87
encoding rcpsp/j120.sm/j12020_7.sm nv: 1544306 nc: 3099713 enctime: 14.37
c File: j12020_7.smnaivebi5.wcnf
c optimal
c final solution cost: 73
c CPU time: 31.478874
s OPTIMUM FOUND

c File: j12020_7.smbi5.wcnf
c optimal
c final solution cost: 73
c CPU time: 3.751807
s OPTIMUM FOUND


rcpsp/heur_output_bi_constraints/Log=5/heurj120.txt
encoding rcpsp/j120.sm/j12020_8.sm nv: 9535078 nc: 19278208 enctime: 133.79
encoding rcpsp/j120.sm/j12020_8.sm nv: 1669346 nc: 3371048 enctime: 18.80
c File: j12020_8.smnaivebi5.wcnf
c timeout
c final solution cost: 355
c CPU time: 77.249136
s UNKNOWN

c File: j12020_8.smbi5.wcnf
c timeout
c final solution cost: 100
c CPU time: 62.298063
s UNKNOWN


rcpsp/heur_output_bi_constraints/Log=5/heurj120.txt
encoding rcpsp/j120.sm/j12020_9.sm nv: 17914050 nc: 35984695 enctime: 237.24
encoding rcpsp/j120.sm/j12020_9.sm nv: 2048025 nc: 4109256 enctime: 25.25
c File: j12020_9.smnaivebi5.wcnf
c optimal
c final solution cost: 74
c CPU time: 47.793050
s OPTIMUM FOUND

c File: j12020_9.smbi5.wcnf
c optimal
c final solution cost: 74
c CPU time: 4.633551
s OPTIMUM FOUND


